(set-info :source |printed by MathSAT|)
(declare-fun ldv_module_refcounter () (_ BitVec 32))

*:
(assert (let ((.def_39933 (= ldv_module_refcounter (_ bv1 32)))).def_39933))
(assert (let ((.def_39938 (bvslt (_ bv1 32) ldv_module_refcounter))).def_39938))

